StudentsNr = 10;
InstructorsNr = 26;
DaysNr = 1;
SlotsPerDay = 10;
AvailabilitySlotsLenght = 2;
RoomNr = 1;
ProgrammNr = 1;
DegreeNr = 2;
RolesNr = 4;
CoursesNr = 2;
InstructorsProgramm = [{1}, {1}, {1}, {1}, {1}, {1}, {1}, {1}, {1}, {1}, {1}, {1}, {1}, {1}, {1}, {1}, {1}, {1}, {1}, {1}, {1}, {1}, {1}, {1}, {1}, {1}];
InstructorRolesPerProgramm = [|{1, 8, 9, 10, 12, 16, 17, 21, 25, 26}, {1, 4, 7, 8, 9, 11, 13, 16, 20, 21}, {1, 2, 4, 5, 6, 7, 10, 11, 12, 14, 18, 21, 24, 25, 26}, {2, 5, 6, 7, 9, 14, 16, 17, 18, 20}|];
InstructorsAvailability = [|1, 1, 1, 1, 0, |0, 0, 0, 0, 1, |1, 1, 0, 0, 1, |0, 0, 1, 1, 1, |1, 1, 1, 0, 0, |0, 1, 1, 1, 1, |0, 0, 0, 1, 1, |1, 1, 0, 0, 1, |0, 1, 1, 1, 1, |1, 0, 1, 1, 0, |1, 1, 1, 0, 1, |1, 1, 1, 1, 1, |0, 0, 1, 1, 1, |0, 1, 1, 1, 1, |0, 1, 1, 1, 1, |1, 1, 1, 1, 1, |0, 0, 1, 0, 1, |0, 0, 1, 1, 1, |0, 1, 1, 1, 1, |0, 1, 1, 1, 1, |1, 1, 1, 1, 1, |0, 1, 0, 1, 0, |0, 1, 1, 1, 1, |1, 0, 1, 1, 1, |0, 0, 0, 1, 1, |0, 0, 1, 0, 1|];
StudentsProgramm = [1, 1, 1, 1, 1, 1, 1, 1, 1, 1];
StudentsDegree = [1, 2, 2, 1, 1, 1, 2, 2, 1, 2];
StudentsSupervisorId = [4, 23, 1, 7, 24, 20, 24, 22, 13, 1];
StudentsCourseIds = [{1}, {2}, {2}, {2}, {2}, {1}, {2}, {2}, {1}, {1}];
StudentsAvailability = [|0, 1, 1, 1, 1, |0, 1, 1, 1, 1, |0, 1, 1, 1, 1, |1, 1, 1, 1, 0, |1, 1, 1, 1, 0, |1, 1, 1, 1, 1, |1, 0, 1, 1, 1, |0, 0, 1, 1, 0, |0, 0, 1, 1, 1, |1, 1, 1, 1, 1|];
TheoryticalMinCard = [0, 1, 0, 0, 0, 0, 0, 0, 0, 0];
CoursesInstructorIds = [{1, 2, 3, 4, 7, 9, 12, 13, 14, 15, 16, 17, 18, 20, 22, 24, 25, 26}, {1, 7, 8, 11, 12, 16, 22}];
RolesDemands = [5, 10, 8, 2];
RolesContinuity = [];
ExamLen = [2, 1, 1, 2, 2, 2, 1, 1, 2, 1];
LunchTsMinLen = 1;
LunchStarts = [2..6];
SupervisorAvailable = 0;
OptimalLunchLenght = [2, 1];
OptimalStartTs = [0, 0];
OptimalFinishTs = [2, 10];
MinimizeRooms = 300;
RolesSoftContinuity = [|1, 2, 3, 4|4, 0, 2, 0|];
SameDegreeInRoom = 20;
Mergeability = 1;
